c :: WCTIME=0.00737704
c :: command line :: ./optimal-finder cvc-full-adder.cnf -minimal
c :: version :: 160
c :: reference filename :: cvc-full-adder.cnf
c :: reference encoding :: 17
c i 6 9 2 3 5 0
c :: inputs :: 6 9 2 3 5 
c :: clause minimization :: 0
c :: assignments analyzed :: 165
c :: reference encoding :: variables :: 8 :: clauses :: 17
c :: optimal encoding :: variables :: 5 :: clauses :: 14
c :: optimal minimal encoding :: 14
p cnf 9 14
-9 3 -6 0
-9 -6 5 0
-9 2 5 0
-9 -6 2 0
-9 5 3 0
-3 -5 9 0
-3 -2 9 0
-3 6 9 0
-5 6 9 0
-5 -2 9 0
-9 2 3 0
-2 6 9 0
-2 -3 -5 6 0
3 -6 2 5 0
